data/mip_solutions/furman_sahinidis/transshipment/9sp-has1_gurobi.sol
Elapsed time: 0.0920419692993
Nodes explored: 0
Upper bound: 13.0
Lower bound: 13.0
y[0,2]=1
y[0,3]=1
y[1,0]=1
y[1,2]=1
y[1,4]=1
y[2,0]=1
y[2,2]=1
y[3,2]=1
y[3,3]=1
y[4,1]=1
y[4,3]=1
y[5,1]=1
y[5,2]=1
q[0,2,3]=750.0
q[0,2,4]=500.0
q[0,2,7]=250.0
q[0,3,3]=750.0
q[0,3,5]=250.0
q[0,3,6]=250.0
q[1,0,5]=750.0
q[1,2,5]=500.0
q[1,2,6]=500.0
q[1,2,7]=2750.0
q[1,4,8]=4500.0
q[2,0,3]=2250.0
q[2,0,4]=750.0
q[2,2,2]=1500.0
q[2,2,3]=2750.0
q[3,2,1]=950.0
q[3,3,1]=750.0
q[3,3,3]=800.0
q[4,1,2]=2100.0
q[4,1,3]=4500.0
q[4,3,2]=750.0
q[4,3,3]=200.0
q[4,3,4]=250.0
q[5,1,1]=10500.0
q[5,1,3]=400.0
q[5,2,1]=7550.0
r[0,4]=250.0
r[1,6]=250.0
r[1,7]=1250.0
r[1,8]=4500.0
r[2,3]=2850.0
r[2,4]=750.0
r[3,3]=300.0
r[4,3]=1050.0
r[4,4]=250.0
r[5,1]=18450.0
r[5,2]=400.0
r[5,3]=400.0
